c turning on binary mode checking
c parsing input formula with 123061 variables and 363619 clauses
c finished parsing, read 87242330 bytes from proof file
c detected empty clause; start verification via backward checking
c 33777 of 363619 clauses in core                            
c 561951 of 1148011 lemmas in core using 23549270 resolution steps
c 0 RAT lemmas in core; 219666 redundant literals in core lemmas
s VERIFIED
c verification time: 144.746 seconds
